c NeuroCodeBench 2.0 CNF formula with verdict Unsat
p cnf 5 25
1 -2 -3 -5 4 0
-1 -4 -3 -2 5 0
-1 -4 3 2 -5 0
-1 -4 -3 2 0
1 2 5 -3 -4 0
-1 -4 -3 -2 -5 0
-1 4 -2 5 0
1 -2 -3 5 -4 0
1 -2 3 -4 5 0
1 2 -5 0
-1 4 2 -3 5 0
-1 4 2 3 5 0
1 2 5 3 -4 0
-1 4 -2 -5 0
1 -2 3 -4 -5 0
1 -2 3 4 5 0
1 -2 -3 5 4 0
1 2 5 -3 4 0
1 -2 -3 -5 -4 0
-1 4 2 -3 -5 0
-1 -4 3 2 5 0
-1 4 2 3 -5 0
-1 -4 3 -2 0
1 2 5 3 4 0
1 -2 3 4 -5 0
